unsat
(:added-eqs                       1630913
 :arith-eq-adapter                2696
 :arith-bound-propagations-lp     2653
 :arith-conflicts                 3331
 :arith-diseq                     114478
 :arith-fixed-eqs                 180743
 :arith-gcd-calls                 53
 :arith-grobner-calls             620
 :arith-grobner-conflicts         346
 :arith-horner-calls              127
 :arith-horner-conflicts          30
 :arith-horner-cross-nested-forms 32072
 :arith-lower                     380904
 :arith-make-feasible             151616
 :arith-max-columns               5917
 :arith-max-rows                  2427
 :arith-nla-add-bounds            114
 :arith-nla-lemmas                1236
 :arith-nla-propagate-bounds      1233
 :arith-nla-propagate-eq          167211
 :arith-nra-calls                 140
 :arith-offset-eqs                607895
 :arith-patches                   53
 :arith-patches-success           52
 :arith-upper                     653100
 :binary-propagations             1690090
 :cnf-encoding-aux-vars           720
 :conflicts                       1991
 :decisions                       1081206
 :del-clause                      2968
 :elim-unconstrained              1416
 :final-checks                    1153
 :max-memory                      132.30
 :memory                          97.83
 :minimized-lits                  876
 :mk-bool-var                     16821
 :mk-clause                       8761
 :mk-clause-binary                96916
 :nlsat-conflicts                 67305
 :nlsat-decisions                 1616880
 :nlsat-propagations              4703482
 :nlsat-restarts                  4
 :nlsat-stages                    1026636
 :num-allocs                      58170157660.00
 :num-checks                      2
 :propagations                    2042670
 :restarts                        17
 :rlimit-count                    39861005
 :sat-mk-clause-2ary              20632
 :sat-mk-clause-nary              32223
 :sat-mk-var                      15287
 :solve-eqs-elim-vars             696
 :solve-eqs-steps                 3684
 :time                            29.32
 :total-time                      29.36)
